c {"clauses":169,"maxClauseSize":4,"minClauseSize":1,"totalLiterals":457,"variables":64}
p cnf 64 169
1 0
2 0
3 0
4 0
5 0
6 0
7 0
8 0
9 0
10 1 11 12 0
-1 -10 0
-11 -10 0
-11 -1 0
-12 -10 0
-12 -1 0
-12 -11 0
4 13 14 15 0
-13 -4 0
-14 -4 0
-14 -13 0
-15 -4 0
-15 -13 0
-15 -14 0
16 17 18 19 0
-17 -16 0
-18 -16 0
-18 -17 0
-19 -16 0
-19 -17 0
-19 -18 0
20 21 22 8 0
-21 -20 0
-22 -20 0
-22 -21 0
-8 -20 0
-8 -21 0
-8 -22 0
23 24 2 25 0
-24 -23 0
-2 -23 0
-2 -24 0
-25 -23 0
-25 -24 0
-25 -2 0
26 27 28 5 0
-27 -26 0
-28 -26 0
-28 -27 0
-5 -26 0
-5 -27 0
-5 -28 0
29 7 30 31 0
-7 -29 0
-30 -29 0
-30 -7 0
-31 -29 0
-31 -7 0
-31 -30 0
9 32 33 34 0
-32 -9 0
-33 -9 0
-33 -32 0
-34 -9 0
-34 -32 0
-34 -33 0
35 36 37 3 0
-36 -35 0
-37 -35 0
-37 -36 0
-3 -35 0
-3 -36 0
-3 -37 0
38 39 6 40 0
-39 -38 0
-6 -38 0
-6 -39 0
-40 -38 0
-40 -39 0
-40 -6 0
41 42 43 44 0
-42 -41 0
-43 -41 0
-43 -42 0
-44 -41 0
-44 -42 0
-44 -43 0
45 46 47 48 0
-46 -45 0
-47 -45 0
-47 -46 0
-48 -45 0
-48 -46 0
-48 -47 0
49 50 51 52 0
-50 -49 0
-51 -49 0
-51 -50 0
-52 -49 0
-52 -50 0
-52 -51 0
53 54 55 56 0
-54 -53 0
-55 -53 0
-55 -54 0
-56 -53 0
-56 -54 0
-56 -55 0
57 58 59 60 0
-58 -57 0
-59 -57 0
-59 -58 0
-60 -57 0
-60 -58 0
-60 -59 0
61 62 63 64 0
-62 -61 0
-63 -61 0
-63 -62 0
-64 -61 0
-64 -62 0
-64 -63 0
10 23 35 49 0
1 24 36 50 0
11 2 37 51 0
12 25 3 52 0
4 26 38 53 0
13 27 39 54 0
14 28 6 55 0
15 5 40 56 0
16 29 41 57 0
17 7 42 58 0
18 30 43 59 0
19 31 44 60 0
20 9 45 61 0
21 32 46 62 0
22 33 47 63 0
8 34 48 64 0
10 4 16 20 0
1 13 17 21 0
11 14 18 22 0
12 15 19 8 0
23 26 29 9 0
24 27 7 32 0
2 28 30 33 0
25 5 31 34 0
35 38 41 45 0
36 39 42 46 0
37 6 43 47 0
3 40 44 48 0
49 53 57 61 0
50 54 58 62 0
51 55 59 63 0
52 56 60 64 0
10 4 23 26 0
1 13 24 27 0
11 14 2 28 0
12 15 25 5 0
16 20 29 9 0
17 21 7 32 0
18 22 30 33 0
19 8 31 34 0
35 38 49 53 0
36 39 50 54 0
37 6 51 55 0
3 40 52 56 0
41 45 57 61 0
42 46 58 62 0
43 47 59 63 0
44 48 60 64 0
